(set-logic HORN)
(declare-datatypes ((Nat_0 0)) (((zero_0 ) (succ_0 (p_0 Nat_0)))))
(declare-fun diseqNat_0 (Nat_0 Nat_0) Bool)
(declare-fun accplus_0 (Nat_0 Nat_0 Nat_0) Bool)
(assert (forall ((x_12 Nat_0))
	(diseqNat_0 zero_0 (succ_0 x_12))))
(assert (forall ((x_13 Nat_0))
	(diseqNat_0 (succ_0 x_13) zero_0)))
(assert (forall ((x_14 Nat_0) (x_15 Nat_0))
	(=> (diseqNat_0 x_14 x_15) (diseqNat_0 (succ_0 x_14) (succ_0 x_15)))))
(assert (forall ((x_2 Nat_0) (z_0 Nat_0) (y_0 Nat_0))
	(=> (accplus_0 x_2 z_0 (succ_0 y_0)) (accplus_0 x_2 (succ_0 z_0) y_0))))
(assert (forall ((x_4 Nat_0))
	(accplus_0 x_4 zero_0 x_4)))
(assert (forall ((x_5 Nat_0) (x_6 Nat_0) (x_1 Nat_0) (y_1 Nat_0))
	(=> (and (diseqNat_0 x_5 x_6) (accplus_0 x_5 x_1 y_1) (accplus_0 x_6 y_1 x_1)) false)))
(check-sat)
(get-model)
